data/lp_files/q3/45_5.lp
\ Model foo
\ LP format - for model browsing. Use MPS format to capture full model detail.
Minimize
  z
Subject To
 allocateEach[1]: x[1,1] + x[2,1] + x[3,1] = 1
 allocateEach[2]: x[1,2] + x[2,2] + x[3,2] = 1
 allocateEach[3]: x[1,3] + x[2,3] + x[3,3] = 1
 allocateEach[4]: x[1,4] + x[2,4] + x[3,4] = 1
 allocateEach[5]: x[1,5] + x[2,5] + x[3,5] = 1
 allocateAllCash: cashProportion[1] + cashProportion[2] + cashProportion[3]
   = 1
 findWorstP[1,2]: z + 0.1464986815118664 cashProportion[1]
   - 0.1464986815118664 cashProportion[2] + 0.1896669596640297 x[1,1]
   + 0.4418888563336263 x[1,2] + 0.1274050200214865 x[1,3]
   + 0.087752710225608 x[1,4] + 0.00678777224338314 x[1,5]
   - 0.1896669596640297 x[2,1] - 0.4418888563336263 x[2,2]
   - 0.1274050200214865 x[2,3] - 0.087752710225608 x[2,4]
   - 0.00678777224338314 x[2,5] >= 0
 findWorstP[1,3]: z + 0.1464986815118664 cashProportion[1]
   - 0.1464986815118664 cashProportion[3] + 0.1896669596640297 x[1,1]
   + 0.4418888563336263 x[1,2] + 0.1274050200214865 x[1,3]
   + 0.087752710225608 x[1,4] + 0.00678777224338314 x[1,5]
   - 0.1896669596640297 x[3,1] - 0.4418888563336263 x[3,2]
   - 0.1274050200214865 x[3,3] - 0.087752710225608 x[3,4]
   - 0.00678777224338314 x[3,5] >= 0
 findWorstP[2,1]: z - 0.0807928471399332 cashProportion[1]
   + 0.0807928471399332 cashProportion[2] - 0.2692556285683507 x[1,1]
   - 0.1122751265754605 x[1,2] - 0.1969460303781105 x[1,3]
   - 0.1634439297640849 x[1,4] - 0.1772864375740601 x[1,5]
   + 0.2692556285683507 x[2,1] + 0.1122751265754605 x[2,2]
   + 0.1969460303781105 x[2,3] + 0.1634439297640849 x[2,4]
   + 0.1772864375740601 x[2,5] >= 0
 findWorstP[2,3]: z + 0.0807928471399332 cashProportion[2]
   - 0.0807928471399332 cashProportion[3] + 0.2692556285683507 x[2,1]
   + 0.1122751265754605 x[2,2] + 0.1969460303781105 x[2,3]
   + 0.1634439297640849 x[2,4] + 0.1772864375740601 x[2,5]
   - 0.2692556285683507 x[3,1] - 0.1122751265754605 x[3,2]
   - 0.1969460303781105 x[3,3] - 0.1634439297640849 x[3,4]
   - 0.1772864375740601 x[3,5] >= 0
 findWorstP[3,1]: z - 0.0930463370758638 cashProportion[1]
   + 0.0930463370758638 cashProportion[3] - 0.2181006141058247 x[1,1]
   - 0.1999565783760313 x[1,2] - 0.0125302400595497 x[1,3]
   - 0.2244587804726754 x[1,4] - 0.2519074499100553 x[1,5]
   + 0.2181006141058247 x[3,1] + 0.1999565783760313 x[3,2]
   + 0.0125302400595497 x[3,3] + 0.2244587804726754 x[3,4]
   + 0.2519074499100553 x[3,5] >= 0
 findWorstP[3,2]: z - 0.0930463370758638 cashProportion[2]
   + 0.0930463370758638 cashProportion[3] - 0.2181006141058247 x[2,1]
   - 0.1999565783760313 x[2,2] - 0.0125302400595497 x[2,3]
   - 0.2244587804726754 x[2,4] - 0.2519074499100553 x[2,5]
   + 0.2181006141058247 x[3,1] + 0.1999565783760313 x[3,2]
   + 0.0125302400595497 x[3,3] + 0.2244587804726754 x[3,4]
   + 0.2519074499100553 x[3,5] >= 0
Bounds
 z <= 1
 -infinity <= cashProportion[1] <= 1
 -infinity <= cashProportion[2] <= 1
 -infinity <= cashProportion[3] <= 1
Binaries
 x[1,1] x[1,2] x[1,3] x[1,4] x[1,5] x[2,1] x[2,2] x[2,3] x[2,4] x[2,5]
 x[3,1] x[3,2] x[3,3] x[3,4] x[3,5]
End
